set NODI := a b c d e f ;

param s :=

a 20
b 20
c 20
d 20 
e 20
f 20 ;

param c :=

a 25
b 25
c 15
d 15
e 25
f 15 ;

param t :=

a b 4
b a 4
a c 12
c a 12
a d 1
d a 1
b c 2
c b 2
b d 6
d b 6
c d 9 
d c 9
a e 3
e a 3
a f 5
f a 5
b e 7
e b 7
b f 8
f b 8
c e 10
e c 10
c f 11
f c 11
d e 13
e d 13
d f 14
f d 14
e f 1
f e 1 ;
